61
1 0 12
2 0 1
2 1 11
3 0 12
3 1 9
3 2 9
4 0 10
4 1 2
4 2 6
4 3 10
5 0 7
5 1 5
5 2 3
5 3 2
5 4 9
6 0 5
6 1 12
6 2 1
6 3 1
6 4 3
6 5 1
7 0 8
7 1 10
7 2 6
7 3 5
7 4 1
7 5 6
7 6 6
8 0 9
8 1 8
8 2 12
8 3 5
8 4 12
8 5 9
8 6 1
8 7 1
9 0 12
9 1 1
9 2 12
9 3 4
9 4 7
9 5 8
9 6 3
9 7 4
9 8 1
10 0 5
10 1 11
10 2 12
10 3 12
10 4 11
10 5 11
10 6 1
10 7 10
10 8 1
10 9 12
11 0 6
11 1 12
11 2 9
11 3 1
11 4 3
11 5 8
11 6 2
11 7 2
11 8 3
11 9 11
11 10 6
12 0 5
12 1 2
12 2 2
12 3 5
12 4 4
12 5 8
12 6 5
12 7 9
12 8 8
12 9 6
12 10 10
12 11 3
13 0 3
13 1 12
13 2 6
13 3 10
13 4 11
13 5 8
13 6 10
13 7 5
13 8 12
13 9 8
13 10 11
13 11 9
13 12 8
14 0 7
14 1 2
14 2 6
14 3 6
14 4 8
14 5 10
14 6 7
14 7 12
14 8 7
14 9 11
14 10 11
14 11 1
14 12 2
14 13 9
15 0 9
15 1 8
15 2 1
15 3 6
15 4 8
15 5 11
15 6 5
15 7 10
15 8 4
15 9 1
15 10 7
15 11 8
15 12 12
15 13 10
15 14 11
16 0 1
16 1 1
16 2 12
16 3 2
16 4 2
16 5 11
16 6 5
16 7 7
16 8 7
16 9 2
16 10 2
16 11 8
16 12 2
16 13 10
16 14 12
16 15 6
17 0 1
17 1 3
17 2 5
17 3 11
17 4 8
17 5 1
17 6 8
17 7 5
17 8 9
17 9 7
17 10 8
17 11 9
17 12 3
17 13 2
17 14 2
17 15 11
17 16 9
18 0 1
18 1 1
18 2 5
18 3 8
18 4 2
18 5 5
18 6 8
18 7 11
18 8 10
18 9 7
18 10 7
18 11 1
18 12 3
18 13 7
18 14 8
18 15 4
18 16 11
18 17 2
19 0 6
19 1 6
19 2 3
19 3 11
19 4 1
19 5 5
19 6 12
19 7 2
19 8 1
19 9 7
19 10 7
19 11 3
19 12 12
19 13 2
19 14 4
19 15 2
19 16 9
19 17 4
19 18 8
20 0 3
20 1 7
20 2 9
20 3 2
20 4 3
20 5 10
20 6 11
20 7 4
20 8 12
20 9 4
20 10 4
20 11 7
20 12 9
20 13 2
20 14 3
20 15 5
20 16 7
20 17 11
20 18 5
20 19 8
21 0 6
21 1 4
21 2 3
21 3 11
21 4 2
21 5 4
21 6 9
21 7 12
21 8 10
21 9 7
21 10 3
21 11 5
21 12 10
21 13 8
21 14 9
21 15 1
21 16 4
21 17 9
21 18 4
21 19 4
21 20 1
22 0 7
22 1 9
22 2 1
22 3 1
22 4 9
22 5 1
22 6 12
22 7 8
22 8 3
22 9 12
22 10 10
22 11 9
22 12 2
22 13 6
22 14 7
22 15 7
22 16 10
22 17 6
22 18 2
22 19 2
22 20 5
22 21 1
23 0 4
23 1 6
23 2 6
23 3 8
23 4 7
23 5 5
23 6 12
23 7 2
23 8 6
23 9 7
23 10 12
23 11 9
23 12 3
23 13 9
23 14 12
23 15 4
23 16 2
23 17 7
23 18 12
23 19 8
23 20 7
23 21 6
23 22 11
24 0 5
24 1 10
24 2 1
24 3 5
24 4 5
24 5 9
24 6 6
24 7 6
24 8 10
24 9 7
24 10 6
24 11 4
24 12 6
24 13 2
24 14 9
24 15 4
24 16 5
24 17 2
24 18 9
24 19 12
24 20 7
24 21 4
24 22 6
24 23 5
25 0 3
25 1 4
25 2 11
25 3 11
25 4 10
25 5 3
25 6 10
25 7 1
25 8 1
25 9 9
25 10 12
25 11 7
25 12 11
25 13 11
25 14 7
25 15 5
25 16 6
25 17 7
25 18 8
25 19 8
25 20 11
25 21 6
25 22 7
25 23 8
25 24 9
26 0 12
26 1 11
26 2 5
26 3 2
26 4 8
26 5 6
26 6 3
26 7 4
26 8 7
26 9 7
26 10 4
26 11 3
26 12 12
26 13 2
26 14 12
26 15 2
26 16 5
26 17 4
26 18 11
26 19 10
26 20 3
26 21 8
26 22 7
26 23 3
26 24 1
26 25 2
27 0 9
27 1 2
27 2 9
27 3 12
27 4 2
27 5 12
27 6 4
27 7 1
27 8 9
27 9 4
27 10 11
27 11 8
27 12 10
27 13 1
27 14 5
27 15 9
27 16 8
27 17 6
27 18 5
27 19 5
27 20 1
27 21 4
27 22 8
27 23 2
27 24 11
27 25 4
27 26 11
28 0 7
28 1 10
28 2 2
28 3 2
28 4 5
28 5 4
28 6 5
28 7 2
28 8 4
28 9 4
28 10 4
28 11 4
28 12 2
28 13 5
28 14 12
28 15 8
28 16 2
28 17 1
28 18 4
28 19 1
28 20 2
28 21 11
28 22 8
28 23 12
28 24 1
28 25 6
28 26 4
28 27 7
29 0 5
29 1 1
29 2 12
29 3 7
29 4 6
29 5 10
29 6 10
29 7 2
29 8 2
29 9 9
29 10 11
29 11 8
29 12 6
29 13 8
29 14 6
29 15 10
29 16 12
29 17 4
29 18 8
29 19 3
29 20 9
29 21 1
29 22 9
29 23 2
29 24 11
29 25 1
29 26 7
29 27 7
29 28 12
30 0 11
30 1 7
30 2 9
30 3 9
30 4 8
30 5 11
30 6 4
30 7 3
30 8 9
30 9 10
30 10 10
30 11 10
30 12 10
30 13 5
30 14 6
30 15 2
30 16 5
30 17 9
30 18 4
30 19 4
30 20 3
30 21 1
30 22 12
30 23 10
30 24 8
30 25 8
30 26 2
30 27 5
30 28 11
30 29 10
31 0 10
31 1 10
31 2 7
31 3 9
31 4 5
31 5 12
31 6 4
31 7 7
31 8 2
31 9 3
31 10 9
31 11 1
31 12 4
31 13 1
31 14 4
31 15 6
31 16 6
31 17 4
31 18 9
31 19 7
31 20 4
31 21 11
31 22 8
31 23 12
31 24 9
31 25 3
31 26 9
31 27 4
31 28 1
31 29 9
31 30 3
32 0 9
32 1 3
32 2 8
32 3 5
32 4 3
32 5 3
32 6 10
32 7 5
32 8 2
32 9 3
32 10 5
32 11 3
32 12 8
32 13 2
32 14 2
32 15 5
32 16 6
32 17 9
32 18 8
32 19 6
32 20 4
32 21 11
32 22 6
32 23 12
32 24 12
32 25 7
32 26 7
32 27 4
32 28 7
32 29 8
32 30 3
32 31 8
33 0 6
33 1 1
33 2 4
33 3 10
33 4 8
33 5 5
33 6 1
33 7 7
33 8 1
33 9 11
33 10 5
33 11 1
33 12 1
33 13 6
33 14 10
33 15 2
33 16 8
33 17 2
33 18 7
33 19 10
33 20 7
33 21 1
33 22 11
33 23 4
33 24 10
33 25 2
33 26 1
33 27 4
33 28 2
33 29 4
33 30 1
33 31 12
33 32 11
34 0 2
34 1 3
34 2 12
34 3 9
34 4 1
34 5 5
34 6 6
34 7 8
34 8 8
34 9 6
34 10 3
34 11 12
34 12 9
34 13 4
34 14 2
34 15 10
34 16 12
34 17 2
34 18 4
34 19 10
34 20 9
34 21 9
34 22 12
34 23 5
34 24 6
34 25 8
34 26 8
34 27 8
34 28 6
34 29 10
34 30 10
34 31 10
34 32 6
34 33 7
35 0 10
35 1 2
35 2 6
35 3 9
35 4 1
35 5 7
35 6 1
35 7 10
35 8 1
35 9 8
35 10 2
35 11 8
35 12 3
35 13 12
35 14 4
35 15 1
35 16 11
35 17 11
35 18 11
35 19 2
35 20 8
35 21 9
35 22 1
35 23 11
35 24 7
35 25 7
35 26 12
35 27 7
35 28 12
35 29 12
35 30 7
35 31 2
35 32 11
35 33 10
35 34 1
36 0 2
36 1 3
36 2 4
36 3 3
36 4 1
36 5 6
36 6 7
36 7 2
36 8 3
36 9 6
36 10 9
36 11 5
36 12 10
36 13 4
36 14 5
36 15 12
36 16 1
36 17 7
36 18 11
36 19 12
36 20 3
36 21 4
36 22 2
36 23 10
36 24 2
36 25 3
36 26 11
36 27 1
36 28 9
36 29 9
36 30 11
36 31 8
36 32 7
36 33 4
36 34 12
36 35 4
37 0 8
37 1 6
37 2 9
37 3 1
37 4 2
37 5 3
37 6 11
37 7 10
37 8 10
37 9 6
37 10 9
37 11 1
37 12 8
37 13 5
37 14 3
37 15 9
37 16 9
37 17 5
37 18 10
37 19 7
37 20 2
37 21 7
37 22 1
37 23 6
37 24 7
37 25 4
37 26 7
37 27 1
37 28 4
37 29 9
37 30 5
37 31 12
37 32 1
37 33 9
37 34 6
37 35 9
37 36 4
38 0 5
38 1 12
38 2 2
38 3 12
38 4 4
38 5 10
38 6 8
38 7 4
38 8 3
38 9 3
38 10 5
38 11 6
38 12 4
38 13 9
38 14 1
38 15 8
38 16 12
38 17 1
38 18 3
38 19 12
38 20 11
38 21 4
38 22 6
38 23 12
38 24 4
38 25 1
38 26 10
38 27 4
38 28 3
38 29 9
38 30 9
38 31 4
38 32 2
38 33 9
38 34 4
38 35 4
38 36 9
38 37 6
39 0 7
39 1 7
39 2 11
39 3 9
39 4 10
39 5 4
39 6 12
39 7 4
39 8 7
39 9 8
39 10 10
39 11 5
39 12 9
39 13 2
39 14 2
39 15 12
39 16 4
39 17 1
39 18 12
39 19 3
39 20 3
39 21 5
39 22 8
39 23 11
39 24 12
39 25 3
39 26 2
39 27 9
39 28 5
39 29 7
39 30 11
39 31 1
39 32 8
39 33 5
39 34 8
39 35 10
39 36 2
39 37 10
39 38 6
40 0 10
40 1 8
40 2 8
40 3 5
40 4 7
40 5 6
40 6 12
40 7 11
40 8 7
40 9 8
40 10 9
40 11 3
40 12 1
40 13 10
40 14 4
40 15 12
40 16 1
40 17 9
40 18 4
40 19 5
40 20 9
40 21 9
40 22 6
40 23 2
40 24 1
40 25 12
40 26 10
40 27 4
40 28 10
40 29 9
40 30 8
40 31 5
40 32 7
40 33 10
40 34 3
40 35 6
40 36 2
40 37 11
40 38 4
40 39 10
41 0 5
41 1 4
41 2 3
41 3 10
41 4 6
41 5 8
41 6 10
41 7 11
41 8 8
41 9 4
41 10 4
41 11 10
41 12 5
41 13 3
41 14 8
41 15 12
41 16 8
41 17 5
41 18 3
41 19 6
41 20 6
41 21 12
41 22 4
41 23 3
41 24 2
41 25 6
41 26 6
41 27 12
41 28 1
41 29 8
41 30 2
41 31 9
41 32 3
41 33 3
41 34 12
41 35 10
41 36 3
41 37 2
41 38 9
41 39 6
41 40 10
42 0 4
42 1 10
42 2 2
42 3 11
42 4 10
42 5 8
42 6 12
42 7 10
42 8 4
42 9 6
42 10 3
42 11 12
42 12 7
42 13 5
42 14 4
42 15 1
42 16 2
42 17 9
42 18 2
42 19 11
42 20 4
42 21 2
42 22 12
42 23 3
42 24 2
42 25 2
42 26 11
42 27 1
42 28 6
42 29 10
42 30 10
42 31 6
42 32 11
42 33 7
42 34 6
42 35 11
42 36 11
42 37 12
42 38 3
42 39 6
42 40 12
42 41 8
43 0 6
43 1 8
43 2 7
43 3 5
43 4 11
43 5 3
43 6 5
43 7 9
43 8 6
43 9 11
43 10 11
43 11 3
43 12 6
43 13 11
43 14 9
43 15 11
43 16 1
43 17 6
43 18 1
43 19 9
43 20 2
43 21 1
43 22 2
43 23 10
43 24 10
43 25 1
43 26 5
43 27 5
43 28 11
43 29 7
43 30 3
43 31 4
43 32 10
43 33 8
43 34 1
43 35 10
43 36 12
43 37 6
43 38 11
43 39 7
43 40 12
43 41 2
43 42 2
44 0 4
44 1 10
44 2 2
44 3 10
44 4 2
44 5 9
44 6 1
44 7 1
44 8 6
44 9 11
44 10 10
44 11 12
44 12 1
44 13 4
44 14 7
44 15 8
44 16 5
44 17 6
44 18 11
44 19 10
44 20 5
44 21 8
44 22 2
44 23 10
44 24 3
44 25 11
44 26 12
44 27 8
44 28 12
44 29 11
44 30 2
44 31 6
44 32 3
44 33 10
44 34 7
44 35 11
44 36 11
44 37 2
44 38 4
44 39 2
44 40 10
44 41 9
44 42 7
44 43 5
45 0 6
45 1 4
45 2 3
45 3 3
45 4 10
45 5 1
45 6 4
45 7 12
45 8 5
45 9 12
45 10 3
45 11 7
45 12 7
45 13 6
45 14 3
45 15 4
45 16 11
45 17 12
45 18 7
45 19 2
45 20 1
45 21 4
45 22 1
45 23 12
45 24 1
45 25 10
45 26 11
45 27 7
45 28 10
45 29 5
45 30 1
45 31 11
45 32 7
45 33 4
45 34 10
45 35 7
45 36 7
45 37 9
45 38 8
45 39 2
45 40 3
45 41 11
45 42 4
45 43 9
45 44 5
46 0 12
46 1 12
46 2 5
46 3 12
46 4 5
46 5 4
46 6 12
46 7 1
46 8 5
46 9 1
46 10 9
46 11 8
46 12 11
46 13 3
46 14 3
46 15 8
46 16 4
46 17 10
46 18 6
46 19 7
46 20 1
46 21 11
46 22 3
46 23 7
46 24 4
46 25 11
46 26 4
46 27 5
46 28 2
46 29 4
46 30 11
46 31 10
46 32 6
46 33 3
46 34 2
46 35 3
46 36 11
46 37 10
46 38 11
46 39 7
46 40 4
46 41 10
46 42 3
46 43 7
46 44 3
46 45 2
47 0 12
47 1 9
47 2 8
47 3 2
47 4 9
47 5 10
47 6 7
47 7 9
47 8 10
47 9 12
47 10 9
47 11 1
47 12 7
47 13 11
47 14 4
47 15 12
47 16 5
47 17 1
47 18 2
47 19 4
47 20 5
47 21 5
47 22 6
47 23 9
47 24 4
47 25 1
47 26 5
47 27 12
47 28 7
47 29 12
47 30 4
47 31 4
47 32 10
47 33 5
47 34 5
47 35 3
47 36 7
47 37 11
47 38 12
47 39 8
47 40 2
47 41 4
47 42 11
47 43 2
47 44 8
47 45 5
47 46 3
48 0 4
48 1 9
48 2 6
48 3 2
48 4 1
48 5 11
48 6 9
48 7 1
48 8 12
48 9 11
48 10 4
48 11 5
48 12 10
48 13 2
48 14 12
48 15 3
48 16 9
48 17 2
48 18 7
48 19 9
48 20 3
48 21 7
48 22 4
48 23 12
48 24 8
48 25 10
48 26 2
48 27 8
48 28 8
48 29 7
48 30 1
48 31 3
48 32 5
48 33 3
48 34 9
48 35 3
48 36 8
48 37 3
48 38 3
48 39 10
48 40 2
48 41 8
48 42 6
48 43 2
48 44 4
48 45 3
48 46 1
48 47 10
49 0 5
49 1 7
49 2 3
49 3 2
49 4 1
49 5 11
49 6 11
49 7 6
49 8 10
49 9 11
49 10 6
49 11 9
49 12 11
49 13 11
49 14 10
49 15 12
49 16 9
49 17 4
49 18 9
49 19 9
49 20 8
49 21 10
49 22 3
49 23 10
49 24 12
49 25 2
49 26 9
49 27 11
49 28 4
49 29 10
49 30 5
49 31 8
49 32 8
49 33 11
49 34 10
49 35 8
49 36 9
49 37 5
49 38 5
49 39 9
49 40 3
49 41 7
49 42 5
49 43 3
49 44 7
49 45 9
49 46 4
49 47 11
49 48 7
50 0 7
50 1 9
50 2 7
50 3 2
50 4 10
50 5 4
50 6 4
50 7 1
50 8 4
50 9 10
50 10 4
50 11 1
50 12 9
50 13 12
50 14 2
50 15 1
50 16 7
50 17 11
50 18 10
50 19 2
50 20 6
50 21 1
50 22 5
50 23 10
50 24 3
50 25 8
50 26 2
50 27 8
50 28 8
50 29 10
50 30 8
50 31 11
50 32 7
50 33 5
50 34 8
50 35 9
50 36 9
50 37 2
50 38 10
50 39 1
50 40 7
50 41 8
50 42 2
50 43 10
50 44 4
50 45 7
50 46 4
50 47 5
50 48 12
50 49 6
51 0 6
51 1 5
51 2 4
51 3 2
51 4 8
51 5 7
51 6 5
51 7 1
51 8 9
51 9 4
51 10 9
51 11 4
51 12 9
51 13 8
51 14 12
51 15 7
51 16 5
51 17 7
51 18 5
51 19 9
51 20 1
51 21 6
51 22 11
51 23 8
51 24 10
51 25 7
51 26 3
51 27 5
51 28 4
51 29 9
51 30 4
51 31 1
51 32 3
51 33 6
51 34 7
51 35 5
51 36 1
51 37 8
51 38 3
51 39 12
51 40 2
51 41 1
51 42 10
51 43 9
51 44 1
51 45 4
51 46 10
51 47 10
51 48 4
51 49 4
51 50 3
52 0 4
52 1 10
52 2 4
52 3 10
52 4 8
52 5 12
52 6 2
52 7 8
52 8 11
52 9 11
52 10 6
52 11 10
52 12 6
52 13 1
52 14 6
52 15 1
52 16 8
52 17 9
52 18 2
52 19 8
52 20 3
52 21 2
52 22 10
52 23 4
52 24 7
52 25 3
52 26 6
52 27 1
52 28 9
52 29 5
52 30 3
52 31 3
52 32 7
52 33 5
52 34 2
52 35 5
52 36 11
52 37 12
52 38 2
52 39 8
52 40 12
52 41 11
52 42 5
52 43 8
52 44 12
52 45 9
52 46 7
52 47 1
52 48 3
52 49 4
52 50 5
52 51 5
53 0 12
53 1 3
53 2 9
53 3 3
53 4 6
53 5 7
53 6 5
53 7 4
53 8 9
53 9 9
53 10 3
53 11 9
53 12 5
53 13 2
53 14 3
53 15 4
53 16 1
53 17 4
53 18 3
53 19 4
53 20 8
53 21 10
53 22 9
53 23 12
53 24 4
53 25 3
53 26 2
53 27 9
53 28 10
53 29 12
53 30 9
53 31 5
53 32 12
53 33 7
53 34 6
53 35 4
53 36 8
53 37 1
53 38 5
53 39 10
53 40 8
53 41 2
53 42 12
53 43 10
53 44 2
53 45 12
53 46 5
53 47 12
53 48 5
53 49 3
53 50 9
53 51 10
53 52 8
54 0 7
54 1 12
54 2 11
54 3 12
54 4 9
54 5 10
54 6 1
54 7 3
54 8 6
54 9 11
54 10 12
54 11 6
54 12 3
54 13 1
54 14 12
54 15 5
54 16 4
54 17 8
54 18 9
54 19 9
54 20 7
54 21 8
54 22 2
54 23 6
54 24 10
54 25 3
54 26 3
54 27 9
54 28 6
54 29 1
54 30 1
54 31 9
54 32 7
54 33 4
54 34 9
54 35 8
54 36 9
54 37 4
54 38 12
54 39 2
54 40 2
54 41 7
54 42 12
54 43 3
54 44 2
54 45 12
54 46 7
54 47 12
54 48 11
54 49 3
54 50 1
54 51 11
54 52 7
54 53 3
55 0 11
55 1 8
55 2 6
55 3 2
55 4 11
55 5 4
55 6 6
55 7 9
55 8 1
55 9 6
55 10 7
55 11 1
55 12 9
55 13 9
55 14 7
55 15 6
55 16 3
55 17 5
55 18 2
55 19 10
55 20 7
55 21 9
55 22 11
55 23 5
55 24 12
55 25 6
55 26 12
55 27 5
55 28 7
55 29 7
55 30 1
55 31 6
55 32 2
55 33 3
55 34 9
55 35 1
55 36 5
55 37 2
55 38 1
55 39 1
55 40 1
55 41 9
55 42 3
55 43 5
55 44 4
55 45 5
55 46 2
55 47 9
55 48 8
55 49 4
55 50 3
55 51 1
55 52 8
55 53 12
55 54 1
56 0 9
56 1 1
56 2 1
56 3 8
56 4 3
56 5 12
56 6 11
56 7 8
56 8 12
56 9 5
56 10 6
56 11 1
56 12 11
56 13 1
56 14 10
56 15 10
56 16 6
56 17 2
56 18 11
56 19 5
56 20 10
56 21 1
56 22 4
56 23 6
56 24 7
56 25 10
56 26 11
56 27 10
56 28 11
56 29 5
56 30 6
56 31 3
56 32 2
56 33 6
56 34 12
56 35 9
56 36 1
56 37 10
56 38 8
56 39 3
56 40 1
56 41 1
56 42 1
56 43 4
56 44 4
56 45 8
56 46 7
56 47 12
56 48 7
56 49 6
56 50 11
56 51 11
56 52 8
56 53 10
56 54 9
56 55 12
57 0 11
57 1 6
57 2 8
57 3 1
57 4 4
57 5 8
57 6 9
57 7 8
57 8 3
57 9 10
57 10 4
57 11 2
57 12 2
57 13 9
57 14 4
57 15 7
57 16 10
57 17 5
57 18 3
57 19 11
57 20 10
57 21 2
57 22 4
57 23 8
57 24 11
57 25 10
57 26 5
57 27 11
57 28 6
57 29 5
57 30 10
57 31 5
57 32 11
57 33 3
57 34 7
57 35 1
57 36 7
57 37 12
57 38 10
57 39 11
57 40 5
57 41 6
57 42 7
57 43 6
57 44 1
57 45 2
57 46 1
57 47 8
57 48 5
57 49 2
57 50 10
57 51 10
57 52 11
57 53 3
57 54 10
57 55 4
57 56 4
58 0 6
58 1 5
58 2 7
58 3 10
58 4 2
58 5 4
58 6 10
58 7 4
58 8 1
58 9 4
58 10 6
58 11 5
58 12 4
58 13 5
58 14 2
58 15 8
58 16 11
58 17 1
58 18 6
58 19 4
58 20 8
58 21 9
58 22 8
58 23 9
58 24 3
58 25 4
58 26 7
58 27 9
58 28 7
58 29 5
58 30 8
58 31 8
58 32 6
58 33 10
58 34 4
58 35 10
58 36 6
58 37 10
58 38 8
58 39 2
58 40 8
58 41 3
58 42 1
58 43 1
58 44 7
58 45 2
58 46 12
58 47 7
58 48 7
58 49 6
58 50 8
58 51 9
58 52 10
58 53 2
58 54 10
58 55 10
58 56 1
58 57 11
59 0 3
59 1 9
59 2 6
59 3 4
59 4 9
59 5 12
59 6 8
59 7 11
59 8 11
59 9 1
59 10 4
59 11 8
59 12 12
59 13 11
59 14 1
59 15 4
59 16 3
59 17 2
59 18 12
59 19 5
59 20 10
59 21 6
59 22 7
59 23 8
59 24 9
59 25 6
59 26 3
59 27 10
59 28 6
59 29 5
59 30 4
59 31 6
59 32 9
59 33 1
59 34 8
59 35 8
59 36 10
59 37 10
59 38 8
59 39 1
59 40 3
59 41 3
59 42 7
59 43 1
59 44 1
59 45 8
59 46 4
59 47 4
59 48 7
59 49 9
59 50 10
59 51 5
59 52 4
59 53 7
59 54 8
59 55 6
59 56 3
59 57 8
59 58 9
60 0 12
60 1 7
60 2 7
60 3 3
60 4 6
60 5 4
60 6 11
60 7 4
60 8 4
60 9 8
60 10 9
60 11 10
60 12 11
60 13 7
60 14 7
60 15 11
60 16 1
60 17 10
60 18 11
60 19 12
60 20 8
60 21 4
60 22 7
60 23 10
60 24 2
60 25 1
60 26 9
60 27 1
60 28 4
60 29 2
60 30 10
60 31 3
60 32 12
60 33 9
60 34 2
60 35 5
60 36 5
60 37 4
60 38 9
60 39 2
60 40 12
60 41 4
60 42 7
60 43 4
60 44 4
60 45 6
60 46 3
60 47 1
60 48 7
60 49 7
60 50 9
60 51 4
60 52 6
60 53 9
60 54 8
60 55 11
60 56 10
60 57 1
60 58 7
60 59 6
